#BEGIN: [Fri Oct 28 11:37:00 2022]
#HOST: mini13.local
#TIMELIMIT: 10800
#MEMLIMIT: 0
#FREQ: 10
#SOLVER: anSolverAsp221027
#CSP: benchmark/automata-network/star_asp/star11.lp
#K: 22
#COMMAND: /Users/soh/app/finding_attractors/incremental-finding.sh benchmark/automata-network/star_asp/star11.lp 22
benchmark/automata-network/star_asp/star11.lp 1
-e %----- The attractor computed for benchmark/automata-network/star_asp/star11.lp 
 %----- The size of the attractor = 1 

clingo version 5.4.0
Reading from ...from_paper2017/scripts/fixed-points.lp ...
Solving...
UNSATISFIABLE

Models       : 0
Calls        : 1
Time         : 0.008s (Solving: 0.00s 1st Model: 0.00s Unsat: 0.00s)
CPU Time     : 0.004s
benchmark/automata-network/star_asp/star11.lp 2
-e %----- The attractor computed for benchmark/automata-network/star_asp/star11.lp 
 %----- The size of the attractor = 2 
-e   %----- The attractor computed with Asynchronous Dynamics 

-e CMD: clingo /Users/soh/app/finding_attractors/01_original_from_paper2017/scripts/asynch.lp /Users/soh/app/finding_attractors/02_attractors-new/with-cycle/attractors-preF.lp /Users/soh/app/finding_attractors/02_attractors-new/with-cycle/attractors-postF.lp benchmark/automata-network/star_asp/star11.lp --const n=2 0

clingo version 5.4.0
Reading from ...ginal_from_paper2017/scripts/asynch.lp ...
Solving...
UNSATISFIABLE

Models       : 0
Calls        : 1
Time         : 0.048s (Solving: 0.00s 1st Model: 0.00s Unsat: 0.00s)
CPU Time     : 0.039s
[ Calling Python ]
[ Solving ready ]
*** Found: 0; skipped: 0
benchmark/automata-network/star_asp/star11.lp 3
-e %----- The attractor computed for benchmark/automata-network/star_asp/star11.lp 
 %----- The size of the attractor = 3 
-e   %----- The attractor computed with Asynchronous Dynamics 

-e CMD: clingo /Users/soh/app/finding_attractors/01_original_from_paper2017/scripts/asynch.lp /Users/soh/app/finding_attractors/02_attractors-new/with-cycle/attractors-preF.lp /Users/soh/app/finding_attractors/02_attractors-new/with-cycle/attractors-postF.lp benchmark/automata-network/star_asp/star11.lp --const n=3 0

clingo version 5.4.0
Reading from ...ginal_from_paper2017/scripts/asynch.lp ...
Solving...
UNSATISFIABLE

Models       : 0
Calls        : 1
Time         : 0.049s (Solving: 0.00s 1st Model: 0.00s Unsat: 0.00s)
CPU Time     : 0.044s
[ Calling Python ]
[ Solving ready ]
*** Found: 0; skipped: 0
benchmark/automata-network/star_asp/star11.lp 4
-e %----- The attractor computed for benchmark/automata-network/star_asp/star11.lp 
 %----- The size of the attractor = 4 
-e   %----- The attractor computed with Asynchronous Dynamics 

-e CMD: clingo /Users/soh/app/finding_attractors/01_original_from_paper2017/scripts/asynch.lp /Users/soh/app/finding_attractors/02_attractors-new/with-cycle/attractors-preF.lp /Users/soh/app/finding_attractors/02_attractors-new/with-cycle/attractors-postF.lp benchmark/automata-network/star_asp/star11.lp --const n=4 0

clingo version 5.4.0
Reading from ...ginal_from_paper2017/scripts/asynch.lp ...
Solving...
UNSATISFIABLE

Models       : 0
Calls        : 1
Time         : 0.068s (Solving: 0.00s 1st Model: 0.00s Unsat: 0.00s)
CPU Time     : 0.062s
[ Calling Python ]
[ Solving ready ]
*** Found: 0; skipped: 0
benchmark/automata-network/star_asp/star11.lp 5
-e %----- The attractor computed for benchmark/automata-network/star_asp/star11.lp 
 %----- The size of the attractor = 5 
-e   %----- The attractor computed with Asynchronous Dynamics 

-e CMD: clingo /Users/soh/app/finding_attractors/01_original_from_paper2017/scripts/asynch.lp /Users/soh/app/finding_attractors/02_attractors-new/with-cycle/attractors-preF.lp /Users/soh/app/finding_attractors/02_attractors-new/with-cycle/attractors-postF.lp benchmark/automata-network/star_asp/star11.lp --const n=5 0

clingo version 5.4.0
Reading from ...ginal_from_paper2017/scripts/asynch.lp ...
Solving...
UNSATISFIABLE

Models       : 0
Calls        : 1
Time         : 0.088s (Solving: 0.01s 1st Model: 0.00s Unsat: 0.01s)
CPU Time     : 0.083s
[ Calling Python ]
[ Solving ready ]
*** Found: 0; skipped: 0
benchmark/automata-network/star_asp/star11.lp 6
-e %----- The attractor computed for benchmark/automata-network/star_asp/star11.lp 
 %----- The size of the attractor = 6 
-e   %----- The attractor computed with Asynchronous Dynamics 

-e CMD: clingo /Users/soh/app/finding_attractors/01_original_from_paper2017/scripts/asynch.lp /Users/soh/app/finding_attractors/02_attractors-new/with-cycle/attractors-preF.lp /Users/soh/app/finding_attractors/02_attractors-new/with-cycle/attractors-postF.lp benchmark/automata-network/star_asp/star11.lp --const n=6 0

clingo version 5.4.0
Reading from ...ginal_from_paper2017/scripts/asynch.lp ...
Solving...
UNSATISFIABLE

Models       : 0
Calls        : 1
Time         : 0.144s (Solving: 0.02s 1st Model: 0.00s Unsat: 0.02s)
CPU Time     : 0.137s
[ Calling Python ]
[ Solving ready ]
*** Found: 0; skipped: 0
benchmark/automata-network/star_asp/star11.lp 7
-e %----- The attractor computed for benchmark/automata-network/star_asp/star11.lp 
 %----- The size of the attractor = 7 
-e   %----- The attractor computed with Asynchronous Dynamics 

-e CMD: clingo /Users/soh/app/finding_attractors/01_original_from_paper2017/scripts/asynch.lp /Users/soh/app/finding_attractors/02_attractors-new/with-cycle/attractors-preF.lp /Users/soh/app/finding_attractors/02_attractors-new/with-cycle/attractors-postF.lp benchmark/automata-network/star_asp/star11.lp --const n=7 0

clingo version 5.4.0
Reading from ...ginal_from_paper2017/scripts/asynch.lp ...
Solving...
UNSATISFIABLE

Models       : 0
Calls        : 1
Time         : 0.218s (Solving: 0.04s 1st Model: 0.00s Unsat: 0.04s)
CPU Time     : 0.213s
[ Calling Python ]
[ Solving ready ]
*** Found: 0; skipped: 0
benchmark/automata-network/star_asp/star11.lp 8
-e %----- The attractor computed for benchmark/automata-network/star_asp/star11.lp 
 %----- The size of the attractor = 8 
-e   %----- The attractor computed with Asynchronous Dynamics 

-e CMD: clingo /Users/soh/app/finding_attractors/01_original_from_paper2017/scripts/asynch.lp /Users/soh/app/finding_attractors/02_attractors-new/with-cycle/attractors-preF.lp /Users/soh/app/finding_attractors/02_attractors-new/with-cycle/attractors-postF.lp benchmark/automata-network/star_asp/star11.lp --const n=8 0

clingo version 5.4.0
Reading from ...ginal_from_paper2017/scripts/asynch.lp ...
Solving...
UNSATISFIABLE

Models       : 0
Calls        : 1
Time         : 0.332s (Solving: 0.08s 1st Model: 0.00s Unsat: 0.08s)
CPU Time     : 0.327s
[ Calling Python ]
[ Solving ready ]
*** Found: 0; skipped: 0
benchmark/automata-network/star_asp/star11.lp 9
-e %----- The attractor computed for benchmark/automata-network/star_asp/star11.lp 
 %----- The size of the attractor = 9 
-e   %----- The attractor computed with Asynchronous Dynamics 

-e CMD: clingo /Users/soh/app/finding_attractors/01_original_from_paper2017/scripts/asynch.lp /Users/soh/app/finding_attractors/02_attractors-new/with-cycle/attractors-preF.lp /Users/soh/app/finding_attractors/02_attractors-new/with-cycle/attractors-postF.lp benchmark/automata-network/star_asp/star11.lp --const n=9 0

clingo version 5.4.0
Reading from ...ginal_from_paper2017/scripts/asynch.lp ...
Solving...
UNSATISFIABLE

Models       : 0
Calls        : 1
Time         : 0.582s (Solving: 0.20s 1st Model: 0.00s Unsat: 0.20s)
CPU Time     : 0.577s
[ Calling Python ]
[ Solving ready ]
*** Found: 0; skipped: 0
benchmark/automata-network/star_asp/star11.lp 10
-e %----- The attractor computed for benchmark/automata-network/star_asp/star11.lp 
 %----- The size of the attractor = 10 
-e   %----- The attractor computed with Asynchronous Dynamics 

-e CMD: clingo /Users/soh/app/finding_attractors/01_original_from_paper2017/scripts/asynch.lp /Users/soh/app/finding_attractors/02_attractors-new/with-cycle/attractors-preF.lp /Users/soh/app/finding_attractors/02_attractors-new/with-cycle/attractors-postF.lp benchmark/automata-network/star_asp/star11.lp --const n=10 0

clingo version 5.4.0
Reading from ...ginal_from_paper2017/scripts/asynch.lp ...
Solving...
UNSATISFIABLE

Models       : 0
Calls        : 1
Time         : 1.028s (Solving: 0.42s 1st Model: 0.00s Unsat: 0.42s)
CPU Time     : 1.023s
[ Calling Python ]
[ Solving ready ]
*** Found: 0; skipped: 0
benchmark/automata-network/star_asp/star11.lp 11
-e %----- The attractor computed for benchmark/automata-network/star_asp/star11.lp 
 %----- The size of the attractor = 11 
-e   %----- The attractor computed with Asynchronous Dynamics 

-e CMD: clingo /Users/soh/app/finding_attractors/01_original_from_paper2017/scripts/asynch.lp /Users/soh/app/finding_attractors/02_attractors-new/with-cycle/attractors-preF.lp /Users/soh/app/finding_attractors/02_attractors-new/with-cycle/attractors-postF.lp benchmark/automata-network/star_asp/star11.lp --const n=11 0

clingo version 5.4.0
Reading from ...ginal_from_paper2017/scripts/asynch.lp ...
Solving...
UNSATISFIABLE

Models       : 0
Calls        : 1
Time         : 1.951s (Solving: 1.04s 1st Model: 0.00s Unsat: 1.04s)
CPU Time     : 1.945s
[ Calling Python ]
[ Solving ready ]
*** Found: 0; skipped: 0
benchmark/automata-network/star_asp/star11.lp 12
-e %----- The attractor computed for benchmark/automata-network/star_asp/star11.lp 
 %----- The size of the attractor = 12 
-e   %----- The attractor computed with Asynchronous Dynamics 

-e CMD: clingo /Users/soh/app/finding_attractors/01_original_from_paper2017/scripts/asynch.lp /Users/soh/app/finding_attractors/02_attractors-new/with-cycle/attractors-preF.lp /Users/soh/app/finding_attractors/02_attractors-new/with-cycle/attractors-postF.lp benchmark/automata-network/star_asp/star11.lp --const n=12 0

clingo version 5.4.0
Reading from ...ginal_from_paper2017/scripts/asynch.lp ...
Solving...
UNSATISFIABLE

Models       : 0
Calls        : 1
Time         : 3.529s (Solving: 2.34s 1st Model: 0.00s Unsat: 2.34s)
CPU Time     : 3.522s
[ Calling Python ]
[ Solving ready ]
*** Found: 0; skipped: 0
benchmark/automata-network/star_asp/star11.lp 13
-e %----- The attractor computed for benchmark/automata-network/star_asp/star11.lp 
 %----- The size of the attractor = 13 
-e   %----- The attractor computed with Asynchronous Dynamics 

-e CMD: clingo /Users/soh/app/finding_attractors/01_original_from_paper2017/scripts/asynch.lp /Users/soh/app/finding_attractors/02_attractors-new/with-cycle/attractors-preF.lp /Users/soh/app/finding_attractors/02_attractors-new/with-cycle/attractors-postF.lp benchmark/automata-network/star_asp/star11.lp --const n=13 0

clingo version 5.4.0
Reading from ...ginal_from_paper2017/scripts/asynch.lp ...
Solving...
UNSATISFIABLE

Models       : 0
Calls        : 1
Time         : 5.059s (Solving: 3.37s 1st Model: 0.00s Unsat: 3.37s)
CPU Time     : 5.052s
[ Calling Python ]
[ Solving ready ]
*** Found: 0; skipped: 0
benchmark/automata-network/star_asp/star11.lp 14
-e %----- The attractor computed for benchmark/automata-network/star_asp/star11.lp 
 %----- The size of the attractor = 14 
-e   %----- The attractor computed with Asynchronous Dynamics 

-e CMD: clingo /Users/soh/app/finding_attractors/01_original_from_paper2017/scripts/asynch.lp /Users/soh/app/finding_attractors/02_attractors-new/with-cycle/attractors-preF.lp /Users/soh/app/finding_attractors/02_attractors-new/with-cycle/attractors-postF.lp benchmark/automata-network/star_asp/star11.lp --const n=14 0

clingo version 5.4.0
Reading from ...ginal_from_paper2017/scripts/asynch.lp ...
Solving...
UNSATISFIABLE

Models       : 0
Calls        : 1
Time         : 9.908s (Solving: 7.64s 1st Model: 0.00s Unsat: 7.64s)
CPU Time     : 9.898s
[ Calling Python ]
[ Solving ready ]
*** Found: 0; skipped: 0
benchmark/automata-network/star_asp/star11.lp 15
-e %----- The attractor computed for benchmark/automata-network/star_asp/star11.lp 
 %----- The size of the attractor = 15 
-e   %----- The attractor computed with Asynchronous Dynamics 

-e CMD: clingo /Users/soh/app/finding_attractors/01_original_from_paper2017/scripts/asynch.lp /Users/soh/app/finding_attractors/02_attractors-new/with-cycle/attractors-preF.lp /Users/soh/app/finding_attractors/02_attractors-new/with-cycle/attractors-postF.lp benchmark/automata-network/star_asp/star11.lp --const n=15 0

clingo version 5.4.0
Reading from ...ginal_from_paper2017/scripts/asynch.lp ...
Solving...
UNSATISFIABLE

Models       : 0
Calls        : 1
Time         : 6.836s (Solving: 3.77s 1st Model: 0.00s Unsat: 3.77s)
CPU Time     : 6.827s
[ Calling Python ]
[ Solving ready ]
*** Found: 0; skipped: 0
benchmark/automata-network/star_asp/star11.lp 16
-e %----- The attractor computed for benchmark/automata-network/star_asp/star11.lp 
 %----- The size of the attractor = 16 
-e   %----- The attractor computed with Asynchronous Dynamics 

-e CMD: clingo /Users/soh/app/finding_attractors/01_original_from_paper2017/scripts/asynch.lp /Users/soh/app/finding_attractors/02_attractors-new/with-cycle/attractors-preF.lp /Users/soh/app/finding_attractors/02_attractors-new/with-cycle/attractors-postF.lp benchmark/automata-network/star_asp/star11.lp --const n=16 0

clingo version 5.4.0
Reading from ...ginal_from_paper2017/scripts/asynch.lp ...
Solving...
UNSATISFIABLE

Models       : 0
Calls        : 1
Time         : 42.205s (Solving: 37.96s 1st Model: 0.00s Unsat: 37.96s)
CPU Time     : 42.181s
[ Calling Python ]
[ Solving ready ]
*** Found: 0; skipped: 0
benchmark/automata-network/star_asp/star11.lp 17
-e %----- The attractor computed for benchmark/automata-network/star_asp/star11.lp 
 %----- The size of the attractor = 17 
-e   %----- The attractor computed with Asynchronous Dynamics 

-e CMD: clingo /Users/soh/app/finding_attractors/01_original_from_paper2017/scripts/asynch.lp /Users/soh/app/finding_attractors/02_attractors-new/with-cycle/attractors-preF.lp /Users/soh/app/finding_attractors/02_attractors-new/with-cycle/attractors-postF.lp benchmark/automata-network/star_asp/star11.lp --const n=17 0

clingo version 5.4.0
Reading from ...ginal_from_paper2017/scripts/asynch.lp ...
Solving...
UNSATISFIABLE

Models       : 0
Calls        : 1
Time         : 13.090s (Solving: 7.88s 1st Model: 0.00s Unsat: 7.88s)
CPU Time     : 13.079s
[ Calling Python ]
[ Solving ready ]
*** Found: 0; skipped: 0
benchmark/automata-network/star_asp/star11.lp 18
-e %----- The attractor computed for benchmark/automata-network/star_asp/star11.lp 
 %----- The size of the attractor = 18 
-e   %----- The attractor computed with Asynchronous Dynamics 

-e CMD: clingo /Users/soh/app/finding_attractors/01_original_from_paper2017/scripts/asynch.lp /Users/soh/app/finding_attractors/02_attractors-new/with-cycle/attractors-preF.lp /Users/soh/app/finding_attractors/02_attractors-new/with-cycle/attractors-postF.lp benchmark/automata-network/star_asp/star11.lp --const n=18 0

clingo version 5.4.0
Reading from ...ginal_from_paper2017/scripts/asynch.lp ...
Solving...
UNSATISFIABLE

Models       : 0
Calls        : 1
Time         : 93.971s (Solving: 87.55s 1st Model: 0.00s Unsat: 87.55s)
CPU Time     : 93.925s
[ Calling Python ]
[ Solving ready ]
*** Found: 0; skipped: 0
benchmark/automata-network/star_asp/star11.lp 19
-e %----- The attractor computed for benchmark/automata-network/star_asp/star11.lp 
 %----- The size of the attractor = 19 
-e   %----- The attractor computed with Asynchronous Dynamics 

-e CMD: clingo /Users/soh/app/finding_attractors/01_original_from_paper2017/scripts/asynch.lp /Users/soh/app/finding_attractors/02_attractors-new/with-cycle/attractors-preF.lp /Users/soh/app/finding_attractors/02_attractors-new/with-cycle/attractors-postF.lp benchmark/automata-network/star_asp/star11.lp --const n=19 0

clingo version 5.4.0
Reading from ...ginal_from_paper2017/scripts/asynch.lp ...
Solving...
UNSATISFIABLE

Models       : 0
Calls        : 1
Time         : 15.556s (Solving: 7.25s 1st Model: 0.00s Unsat: 7.25s)
CPU Time     : 15.544s
[ Calling Python ]
[ Solving ready ]
*** Found: 0; skipped: 0
benchmark/automata-network/star_asp/star11.lp 20
-e %----- The attractor computed for benchmark/automata-network/star_asp/star11.lp 
 %----- The size of the attractor = 20 
-e   %----- The attractor computed with Asynchronous Dynamics 

-e CMD: clingo /Users/soh/app/finding_attractors/01_original_from_paper2017/scripts/asynch.lp /Users/soh/app/finding_attractors/02_attractors-new/with-cycle/attractors-preF.lp /Users/soh/app/finding_attractors/02_attractors-new/with-cycle/attractors-postF.lp benchmark/automata-network/star_asp/star11.lp --const n=20 0

clingo version 5.4.0
Reading from ...ginal_from_paper2017/scripts/asynch.lp ...
Solving...
UNSATISFIABLE

Models       : 0
Calls        : 1
Time         : 846.422s (Solving: 836.10s 1st Model: 0.00s Unsat: 836.10s)
CPU Time     : 846.036s
[ Calling Python ]
[ Solving ready ]
*** Found: 0; skipped: 0
benchmark/automata-network/star_asp/star11.lp 21
-e %----- The attractor computed for benchmark/automata-network/star_asp/star11.lp 
 %----- The size of the attractor = 21 
-e   %----- The attractor computed with Asynchronous Dynamics 

-e CMD: clingo /Users/soh/app/finding_attractors/01_original_from_paper2017/scripts/asynch.lp /Users/soh/app/finding_attractors/02_attractors-new/with-cycle/attractors-preF.lp /Users/soh/app/finding_attractors/02_attractors-new/with-cycle/attractors-postF.lp benchmark/automata-network/star_asp/star11.lp --const n=21 0

clingo version 5.4.0
Reading from ...ginal_from_paper2017/scripts/asynch.lp ...
Solving...
UNSATISFIABLE

Models       : 0
Calls        : 1
Time         : 25.599s (Solving: 13.21s 1st Model: 0.00s Unsat: 13.21s)
CPU Time     : 25.583s
[ Calling Python ]
[ Solving ready ]
*** Found: 0; skipped: 0
benchmark/automata-network/star_asp/star11.lp 22
-e %----- The attractor computed for benchmark/automata-network/star_asp/star11.lp 
 %----- The size of the attractor = 22 
-e   %----- The attractor computed with Asynchronous Dynamics 

-e CMD: clingo /Users/soh/app/finding_attractors/01_original_from_paper2017/scripts/asynch.lp /Users/soh/app/finding_attractors/02_attractors-new/with-cycle/attractors-preF.lp /Users/soh/app/finding_attractors/02_attractors-new/with-cycle/attractors-postF.lp benchmark/automata-network/star_asp/star11.lp --const n=22 0

clingo version 5.4.0
Reading from ...ginal_from_paper2017/scripts/asynch.lp ...
Solving...
Answer: 1
active(level("A1",1),2) active(level("A2",1),4) active(level("A3",1),20) active(level("A4",1),12) active(level("A5",1),6) active(level("A6",1),18) active(level("A7",1),16) active(level("A8",1),8) active(level("A9",1),10) active(level("A10",1),22) active(level("A11",1),14) active(level("A1",0),1) active(level("A1",0),3) active(level("A1",0),4) active(level("A1",0),5) active(level("A1",0),6) active(level("A1",0),7) active(level("A1",0),8) active(level("A1",0),9) active(level("A1",0),10) active(level("A1",0),11) active(level("A1",0),12) active(level("A1",0),13) active(level("A1",0),14) active(level("A1",0),15) active(level("A1",0),16) active(level("A1",0),17) active(level("A1",0),18) active(level("A1",0),19) active(level("A1",0),20) active(level("A1",0),21) active(level("A1",0),22) active(level("A2",0),1) active(level("A2",0),2) active(level("A2",0),3) active(level("A2",0),5) active(level("A2",0),6) active(level("A2",0),7) active(level("A2",0),8) active(level("A2",0),9) active(level("A2",0),10) active(level("A2",0),11) active(level("A2",0),12) active(level("A2",0),13) active(level("A2",0),14) active(level("A2",0),15) active(level("A2",0),16) active(level("A2",0),17) active(level("A2",0),18) active(level("A2",0),19) active(level("A2",0),20) active(level("A2",0),21) active(level("A2",0),22) active(level("A3",0),1) active(level("A3",0),2) active(level("A3",0),3) active(level("A3",0),4) active(level("A3",0),5) active(level("A3",0),6) active(level("A3",0),7) active(level("A3",0),8) active(level("A3",0),9) active(level("A3",0),10) active(level("A3",0),11) active(level("A3",0),12) active(level("A3",0),13) active(level("A3",0),14) active(level("A3",0),15) active(level("A3",0),16) active(level("A3",0),17) active(level("A3",0),18) active(level("A3",0),19) active(level("A3",0),21) active(level("A3",0),22) active(level("A4",0),1) active(level("A4",0),2) active(level("A4",0),3) active(level("A4",0),4) active(level("A4",0),5) active(level("A4",0),6) active(level("A4",0),7) active(level("A4",0),8) active(level("A4",0),9) active(level("A4",0),10) active(level("A4",0),11) active(level("A4",0),13) active(level("A4",0),14) active(level("A4",0),15) active(level("A4",0),16) active(level("A4",0),17) active(level("A4",0),18) active(level("A4",0),19) active(level("A4",0),20) active(level("A4",0),21) active(level("A4",0),22) active(level("A5",0),1) active(level("A5",0),2) active(level("A5",0),3) active(level("A5",0),4) active(level("A5",0),5) active(level("A5",0),7) active(level("A5",0),8) active(level("A5",0),9) active(level("A5",0),10) active(level("A5",0),11) active(level("A5",0),12) active(level("A5",0),13) active(level("A5",0),14) active(level("A5",0),15) active(level("A5",0),16) active(level("A5",0),17) active(level("A5",0),18) active(level("A5",0),19) active(level("A5",0),20) active(level("A5",0),21) active(level("A5",0),22) active(level("A6",0),1) active(level("A6",0),2) active(level("A6",0),3) active(level("A6",0),4) active(level("A6",0),5) active(level("A6",0),6) active(level("A6",0),7) active(level("A6",0),8) active(level("A6",0),9) active(level("A6",0),10) active(level("A6",0),11) active(level("A6",0),12) active(level("A6",0),13) active(level("A6",0),14) active(level("A6",0),15) active(level("A6",0),16) active(level("A6",0),17) active(level("A6",0),19) active(level("A6",0),20) active(level("A6",0),21) active(level("A6",0),22) active(level("A7",0),1) active(level("A7",0),2) active(level("A7",0),3) active(level("A7",0),4) active(level("A7",0),5) active(level("A7",0),6) active(level("A7",0),7) active(level("A7",0),8) active(level("A7",0),9) active(level("A7",0),10) active(level("A7",0),11) active(level("A7",0),12) active(level("A7",0),13) active(level("A7",0),14) active(level("A7",0),15) active(level("A7",0),17) active(level("A7",0),18) active(level("A7",0),19) active(level("A7",0),20) active(level("A7",0),21) active(level("A7",0),22) active(level("A8",0),1) active(level("A8",0),2) active(level("A8",0),3) active(level("A8",0),4) active(level("A8",0),5) active(level("A8",0),6) active(level("A8",0),7) active(level("A8",0),9) active(level("A8",0),10) active(level("A8",0),11) active(level("A8",0),12) active(level("A8",0),13) active(level("A8",0),14) active(level("A8",0),15) active(level("A8",0),16) active(level("A8",0),17) active(level("A8",0),18) active(level("A8",0),19) active(level("A8",0),20) active(level("A8",0),21) active(level("A8",0),22) active(level("A9",0),1) active(level("A9",0),2) active(level("A9",0),3) active(level("A9",0),4) active(level("A9",0),5) active(level("A9",0),6) active(level("A9",0),7) active(level("A9",0),8) active(level("A9",0),9) active(level("A9",0),11) active(level("A9",0),12) active(level("A9",0),13) active(level("A9",0),14) active(level("A9",0),15) active(level("A9",0),16) active(level("A9",0),17) active(level("A9",0),18) active(level("A9",0),19) active(level("A9",0),20) active(level("A9",0),21) active(level("A9",0),22) active(level("A10",0),1) active(level("A10",0),2) active(level("A10",0),3) active(level("A10",0),4) active(level("A10",0),5) active(level("A10",0),6) active(level("A10",0),7) active(level("A10",0),8) active(level("A10",0),9) active(level("A10",0),10) active(level("A10",0),11) active(level("A10",0),12) active(level("A10",0),13) active(level("A10",0),14) active(level("A10",0),15) active(level("A10",0),16) active(level("A10",0),17) active(level("A10",0),18) active(level("A10",0),19) active(level("A10",0),20) active(level("A10",0),21) active(level("A11",0),1) active(level("A11",0),2) active(level("A11",0),3) active(level("A11",0),4) active(level("A11",0),5) active(level("A11",0),6) active(level("A11",0),7) active(level("A11",0),8) active(level("A11",0),9) active(level("A11",0),10) active(level("A11",0),11) active(level("A11",0),12) active(level("A11",0),13) active(level("A11",0),15) active(level("A11",0),16) active(level("A11",0),17) active(level("A11",0),18) active(level("A11",0),19) active(level("A11",0),20) active(level("A11",0),21) active(level("A11",0),22) active(level("A11",0),0) active(level("A10",1),0) active(level("A9",0),0) active(level("A8",0),0) active(level("A7",0),0) active(level("A6",0),0) active(level("A5",0),0) active(level("A4",0),0) active(level("A3",0),0) active(level("A2",0),0) active(level("A1",0),0) numberStates(12)
SATISFIABLE

Models       : 1
Calls        : 1
Time         : 21.230s (Solving: 5.19s 1st Model: 0.32s Unsat: 4.88s)
CPU Time     : 21.214s
[ Calling Python ]
[ Solving ready ]
*** New model found! (currently 1 solutions found)
{(0, 0, 0, 0, 0, 0, 0, 0, 1, 0, 0), (1, 0, 0, 0, 0, 0, 0, 0, 0, 0, 0), (0, 1, 0, 0, 0, 0, 0, 0, 0, 0, 0), (0, 0, 0, 1, 0, 0, 0, 0, 0, 0, 0), (0, 0, 1, 0, 0, 0, 0, 0, 0, 0, 0), (0, 0, 0, 0, 0, 0, 0, 0, 0, 0, 1), (0, 0, 0, 0, 0, 0, 0, 0, 0, 1, 0), (0, 0, 0, 0, 0, 0, 1, 0, 0, 0, 0), (0, 0, 0, 0, 0, 1, 0, 0, 0, 0, 0), (0, 0, 0, 0, 0, 0, 0, 0, 0, 0, 0), (0, 0, 0, 0, 0, 0, 0, 1, 0, 0, 0), (0, 0, 0, 0, 1, 0, 0, 0, 0, 0, 0)}
*** Found: 1; skipped: 0
s SATISFIABLE
	Command being timed: "/Users/soh/app/finding_attractors/incremental-finding.sh benchmark/automata-network/star_asp/star11.lp 22"
	User time (seconds): 1085.70
	System time (seconds): 2.48
	Percent of CPU this job got: 99%
	Elapsed (wall clock) time (h:mm:ss or m:ss): 18:11.26
	Average shared text size (kbytes): 0
	Average unshared data size (kbytes): 0
	Average stack size (kbytes): 0
	Average total size (kbytes): 0
	Maximum resident set size (kbytes): 1866285056
	Average resident set size (kbytes): 0
	Major (requiring I/O) page faults: 0
	Minor (reclaiming a frame) page faults: 772194
	Voluntary context switches: 681
	Involuntary context switches: 76053
	Swaps: 0
	File system inputs: 0
	File system outputs: 0
	Socket messages sent: 1224
	Socket messages received: 0
	Signals delivered: 1
	Page size (bytes): 4096
	Exit status: 0
FINISHED CPU 1088.18 MEM 0 MAXMEM 0 STALE 1
#RESULT: SAT
#FIN: FIN
#CPU: 1088.18
#MAXMEM: 0
c 
#END: [Fri Oct 28 11:55:11 2022]
